SDVRP instances/custom_instances/p04_14_split0.vrp
NAME:p04_14_split
BEST_KNOWN: 0
COMMENT: 0
DIMENSION: 700
CAPACITY: 200
EDGE_WEIGHT_FORMAT: FUNCTION
EDGE_WEIGHT_TYPE: EXACT_2D
NODE_COORD_SECTION
1 0.00000 0.00000
2 -35 -46
3 -35 -46
4 -35 -46
5 -35 -46
6 26 37
7 26 37
8 26 37
9 26 37
10 26 37
11 26 37
12 -5 22
13 -5 22
14 -5 22
15 -5 22
16 -5 22
17 -5 22
18 -5 22
19 16 -27
20 16 -27
21 16 -27
22 37 -38
23 37 -38
24 37 -38
25 4 6
26 4 6
27 4 6
28 4 6
29 4 6
30 15 47
31 15 47
32 15 47
33 15 47
34 38 14
35 38 14
36 38 14
37 38 14
38 38 14
39 38 14
40 20 -26
41 20 -26
42 7 -46
43 7 -46
44 7 -46
45 7 -46
46 -30 -1
47 -30 -1
48 -32 -8
49 -32 -8
50 -32 -8
51 -32 -8
52 -32 -8
53 -32 -8
54 48 33
55 48 33
56 48 33
57 48 33
58 48 33
59 8 2
60 8 2
61 8 2
62 8 2
63 8 2
64 8 2
65 26 -47
66 26 -47
67 26 -47
68 26 -47
69 26 -47
70 -21 -25
71 -21 -25
72 -21 -25
73 -21 -25
74 47 17
75 47 17
76 47 17
77 47 17
78 47 17
79 47 17
80 46 -45
81 46 -45
82 46 -45
83 46 -45
84 15 -14
85 15 -14
86 15 -14
87 15 -14
88 15 -14
89 -37 44
90 -37 44
91 -37 44
92 -37 44
93 -37 44
94 38 11
95 38 11
96 38 11
97 38 11
98 38 11
99 38 11
100 35 48
101 35 48
102 35 48
103 35 48
104 22 30
105 22 30
106 22 30
107 22 30
108 22 30
109 22 30
110 -28 -45
111 -28 -45
112 46 33
113 46 33
114 46 33
115 -29 -35
116 -29 -35
117 -29 -35
118 -29 -35
119 -29 -35
120 -50 -40
121 -50 -40
122 -50 -40
123 -50 -40
124 -50 -40
125 2 45
126 2 45
127 2 45
128 2 45
129 2 45
130 2 45
131 10 -33
132 10 -33
133 10 -33
134 10 -33
135 -29 -6
136 -29 -6
137 -29 -6
138 -29 -6
139 -29 -6
140 -18 40
141 -18 40
142 -18 40
143 15 -28
144 15 -28
145 30 -15
146 30 -15
147 21 -41
148 21 -41
149 21 -41
150 21 -41
151 21 -41
152 47 34
153 47 34
154 47 34
155 47 34
156 49 14
157 49 14
158 -21 -27
159 -21 -27
160 -21 -27
161 -21 -27
162 29 9
163 29 9
164 29 9
165 -47 -20
166 -47 -20
167 -47 -20
168 -47 -20
169 -47 -20
170 -47 -20
171 -47 -20
172 -47 -20
173 -9 31
174 -9 31
175 -9 31
176 -9 31
177 -9 31
178 -9 31
179 31 18
180 31 18
181 31 18
182 31 18
183 31 18
184 31 18
185 -45 -18
186 -50 3
187 -50 3
188 -50 3
189 43 32
190 43 32
191 43 32
192 43 32
193 43 32
194 -50 -24
195 -50 -24
196 -50 -24
197 -18 24
198 -18 24
199 -18 24
200 -18 24
201 -18 24
202 -18 24
203 44 16
204 44 16
205 44 16
206 44 16
207 44 16
208 23 -29
209 23 -29
210 -32 0
211 -32 0
212 -32 0
213 -32 0
214 -30 -5
215 -30 -5
216 -30 -5
217 -30 -5
218 -30 -5
219 -30 -5
220 -40 -32
221 -40 -32
222 -40 -32
223 -40 -32
224 -40 -32
225 44 33
226 44 33
227 44 33
228 44 33
229 44 33
230 44 33
231 35 35
232 35 35
233 35 35
234 35 35
235 35 35
236 35 35
237 39 -41
238 39 -41
239 39 -41
240 39 -41
241 39 -41
242 39 -41
243 39 -41
244 39 -41
245 -45 21
246 -45 21
247 -45 21
248 -45 21
249 -24 -7
250 -24 -7
251 -24 -7
252 -24 -7
253 -24 -7
254 -44 -31
255 -44 -31
256 -44 -31
257 42 -15
258 42 -15
259 42 -15
260 42 -15
261 42 -15
262 42 -15
263 -26 -45
264 -26 -45
265 -26 -45
266 -26 -45
267 -26 -45
268 26 0
269 26 0
270 26 0
271 26 0
272 14 -29
273 14 -29
274 14 -29
275 14 -29
276 14 -29
277 14 -29
278 14 -29
279 21 -8
280 21 -8
281 23 -3
282 23 -3
283 23 -3
284 23 -3
285 23 -3
286 -49 41
287 -49 41
288 -49 41
289 -49 41
290 -49 41
291 -49 41
292 27 -12
293 27 -12
294 27 -12
295 27 -12
296 27 -12
297 27 -12
298 18 -50
299 18 -50
300 18 -50
301 18 -50
302 0 -12
303 0 -12
304 0 -12
305 0 -12
306 0 -12
307 0 -12
308 0 -12
309 -47 -23
310 -47 -23
311 -47 -23
312 -47 -23
313 -47 -23
314 0 10
315 0 10
316 0 10
317 0 10
318 0 10
319 21 1
320 21 1
321 21 1
322 21 1
323 21 1
324 23 -38
325 23 -38
326 23 -38
327 -15 36
328 -15 36
329 -15 36
330 -32 21
331 -32 21
332 -32 21
333 39 47
334 39 47
335 39 47
336 -16 17
337 -16 17
338 -16 17
339 -16 17
340 -16 17
341 -16 17
342 5 -43
343 5 -43
344 5 -43
345 5 -43
346 5 -43
347 19 -3
348 19 -3
349 19 -3
350 19 -3
351 19 -3
352 13 -23
353 13 -23
354 13 -23
355 13 -23
356 13 -23
357 13 -23
358 -3 32
359 -3 32
360 -3 32
361 -3 32
362 -3 32
363 -3 32
364 50 36
365 50 36
366 50 36
367 50 36
368 50 36
369 -18 -31
370 -18 -31
371 -48 -17
372 -48 -17
373 -48 -17
374 -48 -17
375 -48 -17
376 -11 -1
377 -11 -1
378 -11 -1
379 -38 25
380 -38 25
381 -38 25
382 -38 25
383 22 -36
384 22 -36
385 22 -36
386 22 -36
387 22 -36
388 22 -36
389 22 -36
390 37 -25
391 37 -25
392 37 -25
393 37 -25
394 37 -25
395 37 -25
396 3 38
397 3 38
398 3 38
399 3 38
400 3 38
401 3 38
402 33 5
403 33 5
404 33 5
405 33 5
406 33 5
407 33 5
408 -8 -45
409 -8 -45
410 -42 32
411 -42 32
412 -42 32
413 -46 -19
414 -46 -19
415 -46 -19
416 -46 -19
417 -46 -19
418 -46 -19
419 -46 -19
420 -43 -4
421 -43 -4
422 -43 -4
423 -43 -4
424 31 -11
425 31 -11
426 31 -11
427 16 3
428 16 3
429 16 3
430 16 3
431 29 -28
432 29 -28
433 29 -28
434 29 -28
435 29 -28
436 33 36
437 33 36
438 33 36
439 33 36
440 45 -40
441 45 -40
442 45 -40
443 45 -40
444 -10 37
445 -10 37
446 -10 37
447 -11 19
448 -11 19
449 -11 19
450 -11 19
451 13 14
452 13 14
453 13 14
454 13 14
455 13 14
456 -6 -16
457 -6 -16
458 -6 -16
459 -6 -16
460 -48 -33
461 -48 -33
462 -48 -33
463 -48 -33
464 -21 -23
465 -21 -23
466 -21 -23
467 22 23
468 22 23
469 22 23
470 22 23
471 4 -28
472 4 -28
473 4 -28
474 4 -28
475 4 -28
476 4 -28
477 9 21
478 9 21
479 9 21
480 9 21
481 9 21
482 9 21
483 9 21
484 9 21
485 -4 33
486 -4 33
487 47 34
488 47 34
489 -35 22
490 -35 22
491 -35 22
492 -35 22
493 -35 22
494 -35 22
495 2 -38
496 2 -38
497 2 -38
498 -34 18
499 -34 18
500 -34 18
501 -34 18
502 -34 18
503 -48 -25
504 -48 -25
505 -48 -25
506 -48 -25
507 -12 -26
508 -12 -26
509 30 1
510 30 1
511 30 1
512 -10 6
513 -10 6
514 -10 6
515 -10 6
516 -10 6
517 -10 6
518 -10 6
519 -14 10
520 -14 10
521 0 -18
522 0 -18
523 0 -18
524 0 -18
525 0 -18
526 23 -19
527 23 -19
528 23 -19
529 23 -19
530 23 -19
531 23 -19
532 23 -19
533 20 -21
534 20 -21
535 20 -21
536 20 -21
537 20 -21
538 20 -21
539 -3 19
540 -3 19
541 -3 19
542 -3 19
543 -3 19
544 3 -36
545 3 -36
546 3 -36
547 3 -36
548 3 -36
549 30 21
550 30 21
551 30 21
552 30 21
553 30 21
554 30 21
555 30 21
556 31 -36
557 31 -36
558 31 -36
559 31 -36
560 31 -36
561 31 -36
562 29 31
563 29 31
564 29 31
565 29 31
566 29 31
567 29 31
568 29 31
569 29 31
570 0 -49
571 0 -49
572 27 10
573 27 10
574 27 10
575 27 10
576 27 10
577 27 10
578 -20 -2
579 -20 -2
580 -20 -2
581 -20 -2
582 -20 -2
583 -20 -2
584 -20 -2
585 20 44
586 20 44
587 20 44
588 20 44
589 20 44
590 20 44
591 20 44
592 20 44
593 12 46
594 12 46
595 12 46
596 12 46
597 12 46
598 -27 45
599 -27 45
600 -27 45
601 -27 45
602 -27 45
603 -22 22
604 -22 22
605 -22 22
606 -22 22
607 -22 22
608 12 4
609 12 4
610 12 4
611 12 4
612 -1 18
613 -1 18
614 -1 18
615 -26 -10
616 -26 -10
617 -26 -10
618 -25 -18
619 -25 -18
620 -25 -18
621 -25 -18
622 -25 -18
623 -25 -18
624 -25 -18
625 -23 -13
626 -23 -13
627 -23 -13
628 -23 -13
629 -39 -49
630 -39 -49
631 -39 -49
632 -39 -49
633 18 49
634 18 49
635 18 49
636 18 49
637 18 49
638 18 49
639 20 19
640 20 19
641 20 19
642 20 19
643 20 19
644 20 19
645 -47 37
646 -47 37
647 -47 37
648 -47 37
649 -47 37
650 -47 37
651 -47 37
652 8 -47
653 8 -47
654 8 -47
655 8 -47
656 8 -47
657 8 -47
658 7 -30
659 7 -30
660 7 -30
661 7 -30
662 7 -30
663 33 21
664 33 21
665 33 21
666 33 21
667 33 21
668 33 21
669 10 14
670 10 14
671 10 14
672 10 14
673 -31 22
674 -31 22
675 -31 22
676 -31 22
677 -31 22
678 -31 22
679 22 0
680 22 0
681 22 0
682 22 0
683 22 0
684 -11 29
685 -11 29
686 -11 29
687 -11 29
688 -11 29
689 -11 29
690 -11 29
691 -40 -15
692 -40 -15
693 -40 -15
694 -40 -15
695 -40 -15
696 20 -19
697 -47 -20
698 -47 -20
699 -47 -20
700 -47 -20
DEMAND_SECTION
1 0
2 40
3 20
4 10
5 2
6 40
7 40
8 10
9 2
10 2
11 2
12 40
13 40
14 2
15 2
16 2
17 2
18 1
19 40
20 40
21 10
22 20
23 10
24 2
25 40
26 20
27 2
28 2
29 1
30 20
31 10
32 2
33 1
34 40
35 20
36 2
37 2
38 2
39 1
40 40
41 1
42 40
43 40
44 2
45 2
46 40
47 10
48 40
49 20
50 2
51 2
52 2
53 2
54 40
55 10
56 2
57 2
58 1
59 40
60 20
61 2
62 2
63 2
64 1
65 20
66 2
67 2
68 2
69 1
70 40
71 20
72 2
73 2
74 40
75 20
76 2
77 2
78 2
79 2
80 40
81 40
82 10
83 2
84 40
85 40
86 10
87 2
88 2
89 40
90 40
91 10
92 2
93 2
94 20
95 10
96 2
97 2
98 2
99 2
100 20
101 10
102 2
103 2
104 40
105 2
106 2
107 2
108 2
109 1
110 40
111 20
112 40
113 20
114 1
115 40
116 20
117 10
118 2
119 2
120 40
121 2
122 2
123 2
124 1
125 40
126 2
127 2
128 2
129 2
130 1
131 40
132 40
133 10
134 1
135 20
136 2
137 2
138 2
139 1
140 40
141 10
142 1
143 40
144 1
145 20
146 10
147 40
148 20
149 10
150 2
151 1
152 40
153 10
154 2
155 2
156 40
157 1
158 40
159 20
160 2
161 1
162 40
163 40
164 1
165 40
166 40
167 10
168 2
169 2
170 2
171 2
172 1
173 40
174 20
175 2
176 2
177 2
178 2
179 40
180 40
181 10
182 2
183 2
184 1
185 40
186 40
187 20
188 10
189 40
190 40
191 2
192 2
193 1
194 40
195 40
196 20
197 40
198 40
199 10
200 2
201 2
202 2
203 40
204 20
205 10
206 2
207 2
208 40
209 10
210 20
211 2
212 2
213 2
214 40
215 10
216 2
217 2
218 2
219 2
220 20
221 10
222 2
223 2
224 2
225 40
226 40
227 2
228 2
229 2
230 1
231 40
232 10
233 2
234 2
235 2
236 2
237 40
238 40
239 10
240 2
241 2
242 2
243 2
244 1
245 40
246 2
247 2
248 2
249 40
250 20
251 2
252 2
253 2
254 40
255 20
256 2
257 40
258 20
259 2
260 2
261 2
262 1
263 40
264 20
265 2
266 2
267 1
268 20
269 2
270 2
271 2
272 40
273 40
274 2
275 2
276 2
277 2
278 1
279 40
280 20
281 40
282 20
283 10
284 2
285 2
286 40
287 2
288 2
289 2
290 2
291 1
292 40
293 20
294 10
295 2
296 2
297 2
298 40
299 2
300 2
301 1
302 20
303 10
304 2
305 2
306 2
307 2
308 1
309 40
310 40
311 10
312 2
313 2
314 40
315 10
316 2
317 2
318 2
319 40
320 20
321 10
322 2
323 2
324 40
325 10
326 1
327 40
328 20
329 1
330 40
331 40
332 10
333 40
334 20
335 10
336 40
337 10
338 2
339 2
340 2
341 1
342 20
343 10
344 2
345 2
346 1
347 20
348 2
349 2
350 2
351 1
352 20
353 2
354 2
355 2
356 2
357 1
358 40
359 2
360 2
361 2
362 2
363 1
364 40
365 10
366 2
367 2
368 1
369 40
370 1
371 20
372 10
373 2
374 2
375 1
376 40
377 20
378 1
379 40
380 20
381 10
382 1
383 40
384 40
385 10
386 2
387 2
388 2
389 1
390 40
391 20
392 10
393 2
394 2
395 2
396 40
397 10
398 2
399 2
400 2
401 2
402 40
403 20
404 2
405 2
406 2
407 2
408 40
409 20
410 40
411 40
412 1
413 40
414 10
415 2
416 2
417 2
418 2
419 1
420 40
421 40
422 2
423 1
424 20
425 10
426 1
427 40
428 20
429 10
430 2
431 40
432 10
433 2
434 2
435 2
436 20
437 10
438 2
439 2
440 40
441 20
442 2
443 1
444 40
445 40
446 10
447 40
448 20
449 10
450 2
451 40
452 2
453 2
454 2
455 2
456 40
457 10
458 2
459 2
460 40
461 20
462 2
463 1
464 40
465 20
466 2
467 20
468 2
469 2
470 2
471 40
472 40
473 2
474 2
475 2
476 2
477 40
478 20
479 10
480 2
481 2
482 2
483 2
484 1
485 40
486 40
487 40
488 20
489 20
490 10
491 2
492 2
493 2
494 2
495 20
496 10
497 2
498 40
499 10
500 2
501 2
502 2
503 40
504 20
505 10
506 1
507 40
508 20
509 40
510 2
511 2
512 40
513 40
514 2
515 2
516 2
517 2
518 1
519 40
520 20
521 40
522 2
523 2
524 2
525 1
526 40
527 20
528 10
529 2
530 2
531 2
532 2
533 20
534 10
535 2
536 2
537 2
538 1
539 40
540 10
541 2
542 2
543 1
544 40
545 2
546 2
547 2
548 1
549 40
550 20
551 10
552 2
553 2
554 2
555 2
556 40
557 10
558 2
559 2
560 2
561 2
562 40
563 40
564 10
565 2
566 2
567 2
568 2
569 1
570 40
571 20
572 20
573 10
574 2
575 2
576 2
577 1
578 40
579 20
580 2
581 2
582 2
583 2
584 1
585 40
586 40
587 10
588 2
589 2
590 2
591 2
592 1
593 40
594 2
595 2
596 2
597 2
598 40
599 2
600 2
601 2
602 1
603 20
604 2
605 2
606 2
607 1
608 40
609 10
610 2
611 2
612 40
613 2
614 1
615 40
616 20
617 10
618 40
619 20
620 2
621 2
622 2
623 2
624 1
625 40
626 2
627 2
628 2
629 40
630 40
631 2
632 2
633 40
634 40
635 2
636 2
637 2
638 1
639 20
640 10
641 2
642 2
643 2
644 2
645 20
646 10
647 2
648 2
649 2
650 2
651 1
652 20
653 10
654 2
655 2
656 2
657 2
658 40
659 20
660 10
661 2
662 2
663 40
664 40
665 10
666 2
667 2
668 2
669 20
670 10
671 2
672 2
673 40
674 20
675 10
676 2
677 2
678 2
679 40
680 10
681 2
682 2
683 2
684 40
685 40
686 10
687 2
688 2
689 2
690 1
691 40
692 20
693 2
694 2
695 2
696 40
697 40
698 10
699 2
700 2
DEPOT_SECTION
1
-1
EOF