SDVRP instances/custom_instances/p04_14_split0.sol
699 -15 13 17 14 12 11 16 539 542 538 611 612 613 -26 25 482 632 633 635 634 637 636 29 30 31 32 595 592 594 596 593 -40 39 383 384 386 382 385 207 208 85 86 -45 46 210 209 214 213 215 217 218 216 134 135 136 248 251 250 -55 56 54 57 53 151 486 154 153 111 113 112 -60 61 63 62 58 59 27 24 28 313 316 314 315 317 -71 69 70 72 157 160 158 159 507 506 457 458 -83 87 20 18 19 143 142 351 354 356 353 352 -84 695 533 532 535 537 534 536 525 528 529 531 530 527 526 -89 91 88 92 90 599 597 598 600 601 140 139 141 -97 98 94 93 96 95 35 33 38 37 34 36 181 178 179 180 183 182 -108 106 107 10 9 8 5 7 6 586 588 589 587 585 584 590 591 -118 117 114 115 116 110 109 266 263 262 264 265 -138 137 52 50 694 693 184 412 417 413 414 415 418 416 698 171 167 164 170 168 165 -145 144 389 394 390 392 393 391 256 260 261 259 257 258 347 350 349 348 346 -149 150 148 146 147 300 299 298 297 68 65 67 66 64 323 324 325 388 387 -156 155 77 76 74 73 78 75 203 202 205 206 204 -169 696 193 194 195 371 372 373 370 374 691 -174 176 177 175 173 172 683 689 684 688 685 686 687 447 449 -191 188 189 190 192 224 227 228 225 226 229 668 671 670 -211 212 187 185 186 420 419 422 421 690 692 -220 505 502 503 504 310 311 309 308 312 166 697 699 -222 221 219 223 119 121 122 120 123 462 459 460 461 253 255 254 -237 241 239 243 82 80 81 79 440 439 442 441 -252 249 47 49 51 48 615 616 614 624 -279 278 425 423 424 293 292 295 296 291 294 -284 280 281 283 282 509 508 510 268 270 269 267 682 680 681 678 679 -302 304 301 543 546 545 570 569 407 408 -305 306 303 307 544 547 496 495 494 342 341 345 343 344 42 43 41 44 656 651 654 655 653 652 -321 320 318 322 319 427 429 428 426 607 609 608 610 -326 327 328 443 445 444 357 358 360 361 362 359 -331 330 329 676 674 677 675 672 673 604 605 602 606 603 340 339 -335 337 336 338 198 197 196 201 200 199 448 446 -355 271 276 277 272 275 273 274 130 132 133 131 659 -368 369 3 4 2 1 631 629 630 628 -376 377 375 577 578 581 582 579 580 583 519 518 -395 400 397 398 396 399 129 125 124 128 127 126 485 484 540 541 -403 404 405 406 401 402 163 162 161 571 576 573 574 572 575 -409 410 411 288 285 290 287 286 289 648 644 645 647 650 649 646 381 380 491 492 490 493 -433 434 431 432 430 23 21 22 236 242 240 238 559 555 560 556 557 558 -451 452 450 639 641 469 466 103 104 105 476 478 481 479 480 477 483 -454 453 561 568 567 566 564 563 565 562 437 438 435 436 233 234 230 232 235 231 468 467 -455 456 463 465 464 617 618 619 621 623 620 622 627 626 625 -487 152 365 366 363 364 367 332 334 333 100 101 99 102 669 -489 488 379 378 244 245 246 247 500 501 497 498 499 -514 517 516 512 511 513 515 -522 524 521 523 520 471 475 474 472 473 470 657 660 658 661 -643 640 638 642 552 549 548 554 553 551 550 667 662 665 664 663 666 0 





OBJ=
4276.729
BEST_KNOWN=
0.000